2218 2384
4024 2550
4613 3610
3131 1943
92 3748
2201 4273
820 4116
3960 4936
3002 3306
3665 1538
166 4788
2274 4199
452 3849
1400 4282
2846 1814
562 4853
1133 1418
3619 3564
2689 3297
1769 4006
922 2616
4485 2266
4467 830
3657 2395
4439 516
2708 3619
2450 2560
3260 4577
3932 3638
2091 1852
2229 3850
4457 4347
286 332
599 995
3896 157
3638 3795
876 3030
480 3794
1271 3785
1925 3334
1428 563
507 2846
3518 4586
654 2763
756 388
2063 4283
1032 2202
673 1428
1980 4209
820 1935
